8
[-1, 0, 0, 169, 384, 0, 43, 0, 
0, -1, 69, 63, 420, 205, 208, 50, 
0, 69, -1, 1, 94, 308, 98, 0, 
169, 63, 1, -1, 373, 0, 0, 157, 
384, 420, 94, 373, -1, 0, 0, 8, 
0, 205, 308, 0, 0, -1, 13, 459, 
43, 208, 98, 0, 0, 13, -1, 147, 
0, 50, 0, 157, 8, 459, 147, -1]